5 5
0 83 4 84 2 42 3 49 1 49
4 7 1 9 0 71 3 27 2 21
3 35 0 88 1 96 2 76 4 87
3 36 0 93 4 67 1 43 2 8
4 98 0 78 2 36 3 48 1 46
-1
0 2 5
0 2 3 4 5
0 2 4 5
0 2 5
0 2 3 4 5
-2
181 434
16 93 115 182
182 451 555
202 345
233 258 395 365

475 9
0 11 16 21 7
6 12 4 18 24
2 13 22 19 9
15 10 3 23 8
5 1 20 17 14
